DIMENSION: 12
EDGE_WEIGHT_TYPE: EXPLICIT
EDGE_WEIGHT_FORMAT: FULL_MATRIX
EDGE_WEIGHT_SECTION:
32767 42 86 8 54 12 42 17 32767 73 32767 32767 
42 32767 54 15 10 77 31 87 42 78 32767 70 
86 54 32767 32767 32767 70 17 32767 47 18 48 39 
8 15 32767 32767 47 7 98 23 81 32767 10 32767 
54 10 32767 47 32767 79 28 32767 32767 80 49 32767 
12 77 70 7 79 32767 18 80 32767 46 96 13 
42 31 17 98 28 18 32767 93 28 4 32767 15 
17 87 32767 23 32767 80 93 32767 64 82 32767 22 
32767 42 47 81 32767 32767 28 64 32767 32767 32767 33 
73 78 18 32767 80 46 4 82 32767 32767 40 32767 
32767 32767 48 10 49 96 32767 32767 32767 40 32767 32 
32767 70 39 32767 32767 13 15 22 33 32767 32 32767 
EOF